60 1000
1 403 2 3 4 5 6 7 8 9 10 15 17 18 19 20 23 27 29 30 31 32 33 36 37 39 41 43 44 45 46 50 52 54 55 56 58 59 60
2 287 3 4 5 6 7 8 9 10 15 17 18 19 20 22 23 26 27 29 30 31 32 33 34 35 36 37 39 41 42 43 44 45 46 48 49 50 52 54 55 56 57 58 59 60
3 310 4 5 6 7 8 9 10 15 17 18 19 20 22 23 27 29 30 31 32 33 35 36 37 39 41 42 43 44 45 46 50 52 54 55 56 58 59 60
4 427 5 6 7 8 9 10 15 17 18 19 20 22 23 27 29 30 31 32 33 36 37 39 41 42 43 44 45 46 50 52 54 55 56 58 59 60
5 281 6 7 9 18 19 20 23 30 31 36 41 43 46 50 52 54 56 58
6 292 7 8 9 10 15 17 18 19 20 22 23 26 27 29 30 31 32 33 35 36 37 39 41 42 43 44 45 46 48 50 52 54 55 56 57 58 59 60
7 451 8 9 10 11 13 15 17 18 19 20 21 22 23 24 26 27 28 29 30 31 32 33 34 35 36 37 39 40 41 42 43 44 45 46 47 48 49 50 52 53 54 55 56 57 58 59 60
8 265 9 18 19 20 23 29 30 31 36 41 43 46 50 52 54 56 58
9 284 10 15 17 18 19 20 23 27 29 30 31 33 36 37 39 41 43 44 45 46 50 52 54 55 56 58 59
10 450 18 19 20 23 29 30 31 36 41 43 44 46 50 52 54 55 56 58
11 250 23 31 36 41 43 52 54 58
12 300 36
13 400 23 31 36 41 43 52 54
14 278
15 322 18 20 23 30 31 36 41 43 46 50 52 54 56 58
16 374
17 261 18 19 20 23 29 30 31 36 41 43 46 50 52 54 56 58
18 365 19 20 23 27 29 30 31 32 33 36 37 39 41 43 44 45 46 50 52 54 55 56 58 59 60
19 380 20 23 27 29 30 31 33 36 37 41 43 44 45 46 50 52 54 55 56 58 59
20 276 22 23 27 29 30 31 32 33 36 37 39 41 43 44 45 46 50 52 54 55 56 58 59 60
21 344 23 31 36 41 43 52 54 58
22 464 23 30 31 36 41 43 46 52 54 58
23 252 26 27 28 29 30 31 32 33 34 35 36 37 39 40 41 42 43 44 45 46 48 49 50 52 54 55 56 57 58 59 60
24 284 36
25 394 36
26 269 30 31 36 41 43 46 52 54 58
27 337 30 31 36 41 43 46 50 52 54 56 58
28 375 31 36 41 43 52 54 58
29 297 30 31 33 36 41 43 44 46 50 52 54 55 56 58 59
30 328 31 32 33 34 35 36 37 39 41 42 43 44 45 46 48 49 50 52 54 55 56 57 58 59 60
31 498 32 33 34 35 36 37 39 40 41 42 43 44 45 46 47 48 49 50 52 54 55 56 57 58 59 60
32 250 36 41 43 46 52 54 56 58
33 252 36 41 43 46 50 52 54 56 58
34 374 36 41 43 46 52 54 58
35 304 36 41 43 46 52 54 58
36 322 37 39 40 41 42 43 44 45 46 47 48 49 50 51 52 53 54 55 56 57 58 59 60
37 355 41 43 46 50 52 54 56 58
38 276
39 369 41 43 46 50 52 54 56 58
40 485 41 43 52 54 58
41 253 42 43 44 45 46 47 48 49 50 52 54 55 56 57 58 59 60
42 262 43 46 52 54 58
43 357 44 45 46 47 48 49 50 52 54 55 56 57 58 59 60
44 275 46 50 52 54 55 56 58
45 368 46 50 52 54 56 58
46 424 48 49 50 52 54 55 56 57 58 59 60
47 259 52 54
48 317 52 54 58
49 471 52 54 58
50 250 52 54 55 56 58 59
51 279
52 388 54 55 56 57 58 59 60
53 273
54 339 55 56 57 58 59 60
55 449 56 58
56 275 58 59
57 276 58
58 405 59 60
59 274
60 321
